\ENCODING=ISO-8859-1
\Problem name: pregunta1

Maximize
 obj1: 6 AcresTomate + 12 AcresPimientos + 10 AcresEspinacas
Subject To
 C1: 5 AcresTomate + 8 AcresPimientos + 13 AcresEspinacas <= 4000
 C2: 12 AcresTomate + 18 AcresPimientos + 14 AcresEspinacas <= 6000
 C3: AcresTomate + AcresPimientos + AcresEspinacas <= 600
End
